CAPACITY = 6;
N_TASKS = 20;
d = [ 5, 4, 5, 3, 4, 2, 5, 4, 3, 4, 3, 1, 5, 4, 3, 5, 2, 2, 4, 2 ];
rr = [ 1, 3, 1, 3, 3, 1, 1, 1, 3, 4, 1, 2, 1, 2, 1, 3, 1, 1, 2, 1 ];
suc = [ { 6, 12, 18 },
       {  },
       { 5 },
       {  },
       { 6, 15 },
       { 9, 19 },
       {  },
       {  },
       { 18 },
       { 13, 20 },
       {  },
       { 20 },
       {  },
       { 17 },
       {  },
       {  },
       { 18 },
       { 20 },
       {  },
       {  } ];
